>> Start of run:   1-OCT-2015  15:38:07

reinit: Reading from standard input
************************** Dump of input data file ****************************
# Basic input file for Siesta code: Pariodic Calculation     #
# System: Graphene (2D)                                      #
# SystemName: name of the system                             #
# SystemName graphene (in this case)                         #
# SystemLabel: name used in output files (nickname)          #
# SystemLabel graphene                                       #
# (After a successful run, you should have files like this:  #
# benzene.DM : Density matrix                                #
# benzene.XV: Final positions and velocities                 #
# ...)                                                       #
SystemName    graphene
SystemLabel   graphene
# ============= Atomic informations ===============
NumberOfAtoms		2
NumberOfSpecies		2
%block ChemicalSpeciesLabel
 1    6		C
 2	 27		Co
%endblock ChemicalSpeciesLabel
# ======== lattice, cell and coordinates ==========
# === lattice constant ===
LatticeConstant   2.460 Ang
#====== Lattice Vectors - Simulation box ======
%block LatticeVectors
  2.130    1.230000    0.000000
  2.130   -1.230000    0.000000
  0.000    0.000000   15.000000
%endblock LatticeVectors
# === Coordinates and formats (input and output) ===
AtomicCoordinatesFormat Ang
AtomCoorFormatOut  Ang
%block AtomicCoordinatesAndAtomicSpecies
    0.000   0.000   0.000	1
    1.420   0.000   0.000	1
%endblock AtomicCoordinatesAndAtomicSpecies
# ============== kspace Grid and cutoff =============
%block kgrid_Monkhorst_Pack
 9   0   0     0.0
 0   9   0     0.0
 0   0   1     0.0
%endblock kgrid_Monkhorst_Pack
MeshCutoff        50 Ry
# ============== Block to create supercells  =============
%blockSuperCell
 3   0   0
 0   5   0
# 0   0   9
%endblockSuperCell
#==== hold some atoms in the CG relaxation ====
#%block GeometryConstraints
#position from  1 to  180
#%endblock GeometryConstraints
#============== General variables ===================
#= Basis =
PAO.BasisSize     DZP
PAO.EnergyShift   0.03 eV
#============== MD variables =====================
# Type of Run              MD, FC, CG
# SCF  calculation         MD.NumCGsteps     0
# Structure relaxation     MD.NumCGsteps     600
MD.TypeOfRun      CG
MD.NumCGsteps     0
MD.MaxForceTol    0.01  eV/Ang
#=================== SCF variables ========================
# SCF max number of iterations - single point calculation.
# Mixing - 0.1 means 10 percent of the previous density.
# Pulay - how many densities will be considered.
# Tolerance - criteria to stop
MaxSCFIterations      300
DM.MixingWeight       0.04
DM.NumberPulay        3
DM.Tolerance           1.d-4
#== Functional ==
XC.functional       LDA
XC.authors          CA
#======== Solution method =====================
# diagon, order-N or transiesta (transiesta)
# If the system is periodic and has many kpt
# ParallelOverK    .true.
SolutionMethod  diagon
#====================== Electronic temperature (FD or MP) ====================
#=============== determines the occupation of the electronic states ==========
OccupationFunction     FD
ElectronicTemperature  50 meV
#=============== Write ================
WriteMullikenPop                1
WriteBands                      .false.
SaveRho                         T
SaveDeltaRho                    T
SaveHS                          .false.
SaveElectrostaticPotential      .false.
SaveTotalPotential              no
WriteCoorXmol                   .true.
WriteMDXmol                     .true.
#WriteMDhistory                  .false.
WriteEigenvalues                yes
#=============== Calculation Reestart ================
#UseSaveData     true
#DM.UseSaveDM    true
#MD.UseSaveXV    true
#MD.UseSaveCG    true
************************** End of input data file *****************************

reinit: -----------------------------------------------------------------------
reinit: System Name: graphene
reinit: -----------------------------------------------------------------------
reinit: System Label: graphene
reinit: -----------------------------------------------------------------------

initatom: Reading input for the pseudopotentials and atomic orbitals ----------
 Species number:            1  Label: C Atomic number:           6
 Species number:            2  Label: Co Atomic number:          27
Ground state valence configuration:   2s02  2p02
Reading pseudopotential information in formatted form from C.psf

Valence configuration for pseudopotential generation:
2s( 2.00) rc: 1.25
2p( 2.00) rc: 1.25
3d( 0.00) rc: 1.25
4f( 0.00) rc: 1.25
Ground state valence configuration:   4s02  3d07
Reading pseudopotential information in formatted form from Co.psf

Valence configuration for pseudopotential generation:
4s( 2.00) rc: 2.38
4p( 0.00) rc: 2.44
3d( 7.00) rc: 2.26
4f( 0.00) rc: 2.26
For C, standard SIESTA heuristics set lmxkb to 3
 (one more than the basis l, including polarization orbitals).
Use PS.lmax or PS.KBprojectors blocks to override.
For Co, standard SIESTA heuristics set lmxkb to 3
 (one more than the basis l, including polarization orbitals).
Use PS.lmax or PS.KBprojectors blocks to override.

<basis_specs>
C                    Z=   6    Mass=  12.010        Charge= 0.17977+309
Lmxo=1 Lmxkb= 3    BasisType=split      Semic=F
L=0  Nsemic=0  Cnfigmx=2
          n=1  nzeta=2  polorb=0
            splnorm:   0.15000
               vcte:    0.0000
               rinn:    0.0000
                rcs:    0.0000      0.0000
            lambdas:    1.0000      1.0000
L=1  Nsemic=0  Cnfigmx=2
          n=1  nzeta=2  polorb=1
            splnorm:   0.15000
               vcte:    0.0000
               rinn:    0.0000
                rcs:    0.0000      0.0000
            lambdas:    1.0000      1.0000
L=0  Nkbl=1  erefs: 0.17977+309
L=1  Nkbl=1  erefs: 0.17977+309
L=2  Nkbl=1  erefs: 0.17977+309
L=3  Nkbl=1  erefs: 0.17977+309
</basis_specs>

atom: Called for C                     (Z =   6)

read_vps: Pseudopotential generation method:
read_vps: ATM3      Troullier-Martins
Total valence charge:    4.00000

read_vps: Pseudopotential includes a core correction:
read_vps: Pseudo-core for xc-correction

xc_check: Exchange-correlation functional:
xc_check: Ceperley-Alder
xc_check: WARNING: Pseudopotential generated with GGA Perdew, Burke & Ernzerhof 1996 functional
V l=0 = -2*Zval/r beyond r=  1.3270
V l=1 = -2*Zval/r beyond r=  1.3270
V l=2 = -2*Zval/r beyond r=  1.3270
V l=3 = -2*Zval/r beyond r=  1.3270
All V_l potentials equal beyond r=  1.2311
This should be close to max(r_c) in ps generation
All pots = -2*Zval/r beyond r=  1.3270

VLOCAL1: 99.0% of the norm of Vloc inside     28.641 Ry
VLOCAL1: 99.9% of the norm of Vloc inside     65.273 Ry
atom: Maximum radius for 4*pi*r*r*local-pseudopot. charge    1.48507
atom: Maximum radius for r*vlocal+2*Zval:    1.27815
GHOST: No ghost state for L =  0
GHOST: No ghost state for L =  1
GHOST: No ghost state for L =  2
GHOST: No ghost state for L =  3

KBgen: Kleinman-Bylander projectors:
   l= 0   rc=  1.466618   el= -0.993243   Ekb=  7.919456   kbcos=  0.278713
   l= 1   rc=  1.485071   el= -0.377706   Ekb= -4.691706   kbcos= -0.274355
   l= 2   rc=  1.641300   el=  0.002326   Ekb= -1.224148   kbcos= -0.005036
   l= 3   rc=  1.747182   el=  0.003420   Ekb= -0.477402   kbcos= -0.000509

KBgen: Total number of  Kleinman-Bylander projectors:   16
atom: -------------------------------------------------------------------------

atom: SANKEY-TYPE ORBITALS:
atom: Selected multiple-zeta basis: split

SPLIT: Orbitals with angular momentum L= 0

SPLIT: Basis orbitals for state 2s

SPLIT: PAO cut-off radius determined from an
SPLIT: energy shift=  0.002205 Ry

   izeta = 1
                 lambda =    1.000000
                     rc =    5.382558
                 energy =   -0.991266
                kinetic =    0.848090
    potential(screened) =   -1.839356
       potential(ionic) =   -5.389969

   izeta = 2
                 rmatch =    3.518811
              splitnorm =    0.150000
                 energy =   -0.876517
                kinetic =    1.289828
    potential(screened) =   -2.166345
       potential(ionic) =   -5.963401

[...]

SPLIT: Basis orbitals for state 2p

[...]

POLgen: Perturbative polarization orbital with L=  2

POLgen: Polarization orbital for state 2p

   izeta = 1
                     rc =    6.740804
                 energy =    0.936005
                kinetic =    1.965355
    potential(screened) =   -1.029351
       potential(ionic) =   -3.693090
atom: Total number of Sankey-type orbitals: 13

atm_pop: Valence configuration (for local Pseudopot. screening):
 2s( 2.00)
 2p( 2.00)
Vna: chval, zval:    4.00000   4.00000

Vna:  Cut-off radius for the neutral-atom potential:   6.740804
comcore: Pseudo-core radius Rcore=  1.791422

atom: _________________________________________________________________________

<basis_specs>
Co                   Z=  27    Mass=  58.930        Charge= 0.17977+309
Lmxo=2 Lmxkb= 3    BasisType=split      Semic=F
L=0  Nsemic=0  Cnfigmx=4
          n=1  nzeta=2  polorb=1
            splnorm:   0.15000
               vcte:    0.0000
               rinn:    0.0000
                rcs:    0.0000      0.0000
            lambdas:    1.0000      1.0000
L=1  Nsemic=0  Cnfigmx=4
L=2  Nsemic=0  Cnfigmx=3
          n=1  nzeta=2  polorb=0
            splnorm:   0.15000
               vcte:    0.0000
               rinn:    0.0000
                rcs:    0.0000      0.0000
            lambdas:    1.0000      1.0000
L=0  Nkbl=1  erefs: 0.17977+309
L=1  Nkbl=1  erefs: 0.17977+309
L=2  Nkbl=1  erefs: 0.17977+309
L=3  Nkbl=1  erefs: 0.17977+309
</basis_specs>

atom: Called for Co                    (Z =  27)

read_vps: Pseudopotential generation method:
read_vps: ATM 3.2.2 Troullier-Martins
Total valence charge:    9.00000

xc_check: Exchange-correlation functional:
xc_check: Ceperley-Alder
V l=0 = -2*Zval/r beyond r=  2.3201
V l=1 = -2*Zval/r beyond r=  2.3789
V l=2 = -2*Zval/r beyond r=  2.2070
V l=3 = -2*Zval/r beyond r=  2.2070
All V_l potentials equal beyond r=  2.3789
This should be close to max(r_c) in ps generation
All pots = -2*Zval/r beyond r=  2.3789

VLOCAL1: 99.0% of the norm of Vloc inside      7.671 Ry
VLOCAL1: 99.9% of the norm of Vloc inside     17.481 Ry
atom: Maximum radius for 4*pi*r*r*local-pseudopot. charge    2.86948
atom: Maximum radius for r*vlocal+2*Zval:    2.53230
GHOST: No ghost state for L =  0
GHOST: No ghost state for L =  1
GHOST: No ghost state for L =  2
GHOST: No ghost state for L =  3

KBgen: Kleinman-Bylander projectors:
   l= 0   rc=  2.662136   el= -0.416881   Ekb=  3.551820   kbcos=  0.259148
   l= 1   rc=  2.695622   el= -0.102400   Ekb=  1.801775   kbcos=  0.208652
   l= 2   rc=  2.469772   el= -0.620794   Ekb=-13.174688   kbcos= -0.727727
   l= 3   rc=  2.798631   el=  0.003448   Ekb= -1.347299   kbcos= -0.009309

KBgen: Total number of  Kleinman-Bylander projectors:   16
atom: -------------------------------------------------------------------------

atom: SANKEY-TYPE ORBITALS:
atom: Selected multiple-zeta basis: split

[...]

SPLIT: Basis orbitals for state 4s

[...]

POLgen: Perturbative polarization orbital with L=  1

POLgen: Polarization orbital for state 4s

   izeta = 1
                     rc =    7.997681
                 energy =   -0.081873
                kinetic =    0.583688
    potential(screened) =   -0.665560
       potential(ionic) =   -6.336804
atom: Total number of Sankey-type orbitals: 15

atm_pop: Valence configuration (for local Pseudopot. screening):
 4s( 2.00)
 4p( 0.00)
 3d( 7.00)
Vna: chval, zval:    9.00000   9.00000

Vna:  Cut-off radius for the neutral-atom potential:   7.997681

atom: _________________________________________________________________________

prinput: Basis input ----------------------------------------------------------

PAO.BasisType split

%block ChemicalSpeciesLabel
    1    6 C                       # Species index, atomic number, species label
    2   27 Co                      # Species index, atomic number, species label
%endblock ChemicalSpeciesLabel

%block PAO.Basis                 # Define Basis set
C                     2                    # Species label, number of l-shells
 n=2   0   2                         # n, l, Nzeta
   5.383      3.519
   1.000      1.000
 n=2   1   2 P   1                   # n, l, Nzeta, Polarization, NzetaPol
   6.741      3.841
   1.000      1.000
Co                    2                    # Species label, number of l-shells
 n=4   0   2 P   1                   # n, l, Nzeta, Polarization, NzetaPol
   7.998      6.075
   1.000      1.000
 n=3   2   2                         # n, l, Nzeta
   4.851      2.126
   1.000      1.000
%endblock PAO.Basis

prinput: ----------------------------------------------------------------------

coor:   Atomic-coordinates input format  =     Cartesian coordinates
coor:                                          (in Angstroms)

siesta: Atomic coordinates (Bohr) and species
siesta:      0.00000   0.00000   0.00000  1        1
siesta:      2.68341   0.00000   0.00000  1        2

siesta: System type = slab

initatomlists: Number of atoms, orbitals, and projectors:      2    26    32

siesta: ******************** Simulation parameters ****************************
siesta:
siesta: The following are some of the parameters of the simulation.
siesta: A complete list of the parameters used, including default values,
siesta: can be found in file out.fdf
siesta:
redata: Non-Collinear-spin run           =     F
redata: SpinPolarized (Up/Down) run      =     F
redata: Number of spin components        =     1
redata: Long output                      =     F
redata: Number of Atomic Species         =        2
redata: Charge density info will appear in .RHO file
redata: Write Mulliken Pop.              =     Atomic and Orbital charges
redata: Mesh Cutoff                      =    50.0000  Ry
redata: Net charge of the system         =     0.0000 |e|
redata: Max. number of SCF Iter          =      300
redata: Performing Pulay mixing using    =     3 iterations
redata: Mix DM in first SCF step ?       =     F
redata: Write Pulay info on disk?        =     F
redata: Discard 1st Pulay DM after  kick =     F
redata: New DM Mixing Weight             =     0.0400
redata: New DM Occupancy tolerance       = 0.000000000001
redata: No kicks to SCF
redata: DM Mixing Weight for Kicks       =     0.5000
redata: DM Tolerance for SCF             =     0.000100
redata: Require Energy convergence for SCF =     F
redata: DM Energy tolerance for SCF      =     0.000100 eV
redata: Require Harris convergence for SCF =     F
redata: DM Harris energy tolerance for SCF =     0.000100 eV
redata: Using Saved Data (generic)   =     F
redata: Use continuation files for DM    =     F
redata: Neglect nonoverlap interactions  =     F
redata: Method of Calculation            =     Diagonalization
redata: Divide and Conquer               =     T
redata: Electronic Temperature           =     0.0037  Ry
redata: Fix the spin of the system       =     F
redata: Dynamics option                  =     CG coord. optimization
redata: Variable cell                    =     F
redata: Use continuation files for CG    =     F
redata: Max atomic displ per move        =     0.2000  Bohr
redata: Maximum number of CG moves       =        0
redata: Force tolerance                  =     0.0004  Ry/Bohr
redata: ***********************************************************************
Total number of electrons:     8.000000
Total ionic charge:     8.000000

* ProcessorY, Blocksize:    1  24

 Kpoints in:           45 . Kpoints trimmed:           41

siesta: k-grid: Number of k-points =    41
siesta: k-grid: Cutoff (effective) =    18.450 Ang
siesta: k-grid: Supercell and displacements
siesta: k-grid:    9   0   0      0.000
siesta: k-grid:    0   9   0      0.000
siesta: k-grid:    0   0   1      0.000
Naive supercell factors:     3    3    1

superc: Internal auxiliary supercell:     3 x     3 x     1  =       9
superc: Number of atoms, orbitals, and projectors:     18    234    288

siesta:                 ==============================
                            Begin CG move =      0

superc: Internal auxiliary supercell:     3 x     3 x     1  =       9
superc: Number of atoms, orbitals, and projectors:     18    234    288

outcell: Unit cell vectors (Ang):
        5.239800    3.025800    0.000000
        5.239800   -3.025800    0.000000
        0.000000    0.000000   36.900000

outcell: Cell vector modules (Ang)   :    6.050700    6.050700   36.900000
outcell: Cell angles (23,13,12) (deg):     90.0000     90.0000     60.0098
outcell: Cell volume (Ang**3)        :   1170.0685
New_DM. Step:     1
Initializing Density Matrix...

InitMesh: MESH =    24 x    24 x   160 =       92160
InitMesh: Mesh cutoff (required, used) =    50.000    51.962 Ry

stepf: Fermi-Dirac step function

siesta: Program's energy decomposition (eV):
siesta: Ebs     =       -98.635770
siesta: Eions   =       632.268963
siesta: Ena     =       226.234923
siesta: Ekin    =       172.768668
siesta: Enl     =        16.974106
siesta: DEna    =         0.000000
siesta: DUscf   =         0.000000
siesta: DUext   =         0.000000
siesta: Exc     =       -81.943933
siesta: eta*DQ  =         0.000000
siesta: Emadel  =         0.000000
siesta: Emeta   =         0.000000
siesta: Emolmec =         0.000000
siesta: Ekinion =         0.000000
siesta: Eharris =      -300.607820
siesta: Etot    =      -298.235198
siesta: FreeEng =      -298.235198

siesta: E_KS(eV) =             -300.1937

siesta: E_KS - E_eggbox =      -300.1937

siesta: Atomic forces (eV/Ang):
   Tot    0.038705   -0.000000    0.000000
   Max    3.826429
   Res    2.198045    sqrt( Sum f_i^2 / 3N )
   Max    3.826429    constrained

Stress-tensor-Voigt (kbar):        7.61        0.13        0.01        0.00        0.00        0.00
(Free)E + p*V (eV/cell)     -302.2393
Target enthalpy (eV/cell)     -300.3514

mulliken: Mulliken Atomic and Orbital Populations:

Species: C
Atom  Qatom  Qorb
               2Pdxy   2Pdyz   2Pdz2   2Pdxz   2Pdx2-y2
   1  4.001   1.210   0.346   0.598   0.587   0.614   0.189   0.193   0.200
              0.021   0.000   0.006   0.020   0.017
   2  3.999   1.217   0.342   0.587   0.591   0.612   0.195   0.194   0.200
              0.019   0.000   0.006   0.020   0.017

mulliken: Qtot =        8.000

coxmol: Writing XMOL coordinates into file graphene.xyz

siesta: Eigenvalues (eV):
  ik is    eps
   1  1 -19.03 -10.76  -7.81  -7.79  -7.70  -2.29  -2.24   4.63   6.15   6.98
          7.49   7.88   9.28   9.71   9.86   9.92  11.14  15.11  15.17  19.53
         20.06  20.28  37.73  40.96  41.36  42.19
   2  1 -19.03 -10.75  -7.81  -7.80  -7.71  -2.31  -2.23   4.85   6.22   6.91
          7.51   7.90   9.44   9.56   9.71   9.88  11.00  15.06  15.54  19.26
         19.97  20.51  37.51  41.13  41.32  43.78
   3  1 -19.03 -10.74  -7.80  -7.79  -7.73  -2.33  -2.22   5.21   6.35   6.82
          7.56   7.93   9.08   9.60   9.65   9.92  10.87  14.98  15.96  18.78
         19.83  20.94  37.27  41.26  41.42  46.45
   4  1 -19.03 -10.73  -7.80  -7.78  -7.75  -2.35  -2.20   5.53   6.55   6.75
          7.68   7.95   8.55   9.52   9.77  10.03  10.78  14.90  16.22  18.32
         19.71  21.34  37.12  41.21  41.67  49.17
   5  1 -19.03 -10.72  -7.80  -7.77  -7.77  -2.36  -2.20   5.64   6.67   6.72
          7.87   7.93   8.21   9.48   9.79  10.09  10.75  14.86  16.31  18.14
         19.67  21.50  37.07  41.19  41.77  50.37
   6  1 -19.03 -10.76  -7.82  -7.79  -7.69  -2.28  -2.25   4.58   6.00   7.01
          7.53   8.10   9.26   9.68   9.79   9.91  11.18  15.12  15.15  19.62
         20.10  20.15  37.80  40.86  41.37  41.69
   7  1 -19.03 -10.75  -7.82  -7.79  -7.70  -2.31  -2.24   4.84   5.88   6.95
          7.56   8.16   9.41   9.45   9.76   9.79  11.09  15.10  15.49  19.49
         20.01  20.39  37.74  40.96  41.34  42.96
   8  1 -19.03 -10.74  -7.81  -7.80  -7.72  -2.34  -2.22   5.29   5.82   6.86
          7.60   8.22   8.94   9.63   9.70   9.83  10.97  15.02  15.89  19.07
         19.87  20.83  37.53  41.17  41.29  45.40
   9  1 -19.03 -10.73  -7.80  -7.80  -7.74  -2.36  -2.21   5.64   6.00   6.78
          7.66   8.19   8.54   9.61   9.74   9.95  10.87  14.93  16.14  18.60
         19.75  21.21  37.31  41.24  41.45  47.95
  10  1 -19.03 -10.73  -7.80  -7.78  -7.75  -2.35  -2.20   5.53   6.55   6.75
          7.68   7.95   8.55   9.52   9.77  10.03  10.78  14.90  16.22  18.32
         19.71  21.34  37.12  41.21  41.67  49.17
  11  1 -19.03 -10.73  -7.80  -7.77  -7.75  -2.33  -2.21   5.29   6.76   6.90
          7.40   8.00   8.82   9.46   9.76   9.96  10.74  14.94  16.15  18.39
         19.77  21.13  37.00  41.22  41.73  48.24
  12  1 -19.03 -10.74  -7.80  -7.78  -7.73  -2.31  -2.22   4.98   6.77   6.83
          7.34   8.05   9.30   9.49   9.66   9.85  10.76  15.03  15.90  18.76
         19.89  20.70  37.01  41.26  41.59  45.88
  13  1 -19.03 -10.75  -7.80  -7.79  -7.71  -2.28  -2.24   4.70   6.45   6.92
          7.42   8.06   9.44   9.54   9.80   9.81  10.88  15.12  15.50  19.21
         20.02  20.30  37.21  41.30  41.32  43.47
  14  1 -19.03 -10.76  -7.81  -7.79  -7.70  -2.27  -2.25   4.54   6.18   7.00
          7.48   8.07   9.28   9.63   9.80  10.01  11.09  15.13  15.16  19.51
         20.11  20.13  37.56  40.94  41.36  41.97
  15  1 -19.03 -10.77  -7.82  -7.79  -7.67  -2.26  -2.24   4.39   5.94   7.08
          7.48   8.61   9.20   9.56   9.65   9.96  11.22  14.96  15.26  19.42
         20.13  20.22  37.78  40.17  41.23  41.40
  16  1 -19.03 -10.76  -7.82  -7.79  -7.68  -2.28  -2.25   4.63   5.73   7.03
          7.55   8.70   9.34   9.35   9.63   9.77  11.17  15.20  15.30  19.69
         20.08  20.12  37.88  40.74  41.38  41.53
  17  1 -19.03 -10.75  -7.82  -7.79  -7.70  -2.32  -2.24   5.02   5.63   6.94
          7.59   8.69   8.89   9.59   9.64   9.75  11.07  15.11  15.67  19.49
         19.98  20.43  37.75  40.95  41.34  43.36
  18  1 -19.03 -10.74  -7.81  -7.80  -7.72  -2.34  -2.22   5.29   5.82   6.86
          7.60   8.22   8.94   9.63   9.70   9.83  10.97  15.02  15.89  19.07
         19.87  20.83  37.53  41.17  41.29  45.40
  19  1 -19.03 -10.74  -7.80  -7.79  -7.73  -2.33  -2.22   5.21   6.35   6.82
          7.56   7.93   9.08   9.60   9.65   9.92  10.87  14.98  15.96  18.78
         19.83  20.94  37.27  41.26  41.42  46.45
  20  1 -19.03 -10.74  -7.80  -7.78  -7.73  -2.31  -2.22   4.98   6.77   6.83
          7.34   8.05   9.30   9.49   9.66   9.85  10.76  15.03  15.90  18.76
         19.89  20.70  37.01  41.26  41.59  45.88
[...]
  37  1 -19.03 -10.76  -7.81  -7.79  -7.70  -2.29  -2.24   4.63   6.15   6.98
          7.49   7.88   9.28   9.71   9.86   9.92  11.14  15.11  15.17  19.53
         20.06  20.28  37.73  40.96  41.36  42.19
  38  1 -19.03 -10.76  -7.81  -7.79  -7.70  -2.27  -2.25   4.54   6.18   7.00
          7.48   8.07   9.28   9.63   9.80  10.01  11.09  15.13  15.16  19.51
         20.11  20.13  37.56  40.94  41.36  41.97
  39  1 -19.03 -10.77  -7.80  -7.79  -7.67  -2.26  -2.22   4.34   6.23   7.06
          7.39   8.53   9.22   9.49   9.67  10.18  11.06  14.98  15.27  19.28
         20.04  20.23  37.32  40.56  41.38  41.48
  40  1 -19.03 -10.79  -7.80  -7.79  -7.65  -2.28  -2.17   4.13   6.38   7.14
          7.22   8.91   9.08   9.36   9.59  10.41  11.12  14.71  15.38  18.77
         20.25  20.38  37.20  39.52  41.41  41.43
  41  1 -19.03 -10.80  -7.80  -7.79  -7.64  -2.29  -2.14   4.00   6.46   7.10
          7.21   8.95   9.08   9.32   9.56  10.48  11.37  14.42  15.44  18.44
         20.45  20.47  37.36  38.56  41.43  41.45
siesta: Fermi energy =      -7.724560 eV

siesta: Program's energy decomposition (eV):
siesta: Ebs     =       -90.703810
siesta: Eions   =       632.268963
siesta: Ena     =       226.234923
siesta: Ekin    =       182.041353
siesta: Enl     =         9.571726
siesta: DEna    =        -2.596148
siesta: DUscf   =         0.182015
siesta: DUext   =         0.000000
siesta: Exc     =       -83.358639
siesta: eta*DQ  =         0.000000
siesta: Emadel  =         0.000000
siesta: Emeta   =         0.000000
siesta: Emolmec =         0.000000
siesta: Ekinion =         0.000000
siesta: Eharris =      -300.193753
siesta: Etot    =      -300.193733
siesta: FreeEng =      -300.351432

siesta: Final energy (eV):
siesta:  Band Struct. =     -90.703810
siesta:       Kinetic =     182.041353
siesta:       Hartree =     642.775844
siesta:    Ext. field =       0.000000
siesta:   Exch.-corr. =     -83.358639
siesta:  Ion-electron =   -1452.137100
siesta:       Ion-ion =     410.484808
siesta:       Ekinion =       0.000000
siesta:         Total =    -300.193733

siesta: Atomic forces (eV/Ang):
siesta:      1    3.826429   -0.000000    0.000000
siesta:      2   -3.787724   -0.000000    0.000000
siesta: ----------------------------------------
siesta:    Tot    0.038705   -0.000000    0.000000

siesta: Stress tensor (static) (eV/Ang**3):
siesta:     0.004753    0.000000    0.000000
siesta:     0.000000    0.000083    0.000000
siesta:     0.000000    0.000000    0.000005

siesta: Cell volume =       1170.068509 Ang**3

siesta: Pressure (static):
siesta:                Solid            Molecule  Units
siesta:          -0.00001757         -0.00000080  Ry/Bohr**3
siesta:          -0.00161350         -0.00007340  eV/Ang**3
siesta:          -2.58513416         -0.11760387  kBar
(Free)E+ p_basis*V_orbitals  =        -299.005170
(Free)Eharris+ p_basis*V_orbitals  =        -299.005178

siesta: Electric dipole (a.u.)  =   -0.000000   -0.000000    0.000000
siesta: Electric dipole (Debye) =   -0.000000   -0.000000    0.000000

elaps:  Routine       Calls   Time/call    Tot.time        %
elaps:  siesta            1       3.781       3.781   100.00
elaps:  Setup             1       0.149       0.149     3.94
elaps:  bands             1       0.000       0.000     0.00
elaps:  writewave         1       0.001       0.001     0.03
elaps:  KSV_init          1       0.000       0.000     0.00
elaps:  IterMD            1       3.586       3.586    94.84
elaps:  hsparse           1       0.000       0.000     0.00
elaps:  overlap           1       0.108       0.108     2.86
elaps:  IterSCF          44       0.077       3.389    89.63
elaps:  kinefsm           2       0.052       0.105     2.78
elaps:  nlefsm            2       0.170       0.340     8.99
elaps:  DHSCF            46       0.042       1.926    50.94
elaps:  DHSCF1            1       0.010       0.010     0.26
elaps:  DHSCF2            1       0.051       0.051     1.35
elaps:  REORD           374       0.000       0.052     1.38
elaps:  POISON           47       0.016       0.736    19.47
elaps:  DHSCF3           46       0.040       1.823    48.21
elaps:  rhoofd           46       0.012       0.531    14.04
elaps:  cellXC           46       0.003       0.156     4.13
elaps:  vmat             45       0.006       0.249     6.59
elaps:  MolMec            2       0.000       0.000     0.00
elaps:  diagon           44       0.025       1.109    29.33
elaps:  c-eigval       1804       0.000       0.334     8.83
elaps:  c-buildHS      1804       0.000       0.168     4.44
elaps:  cdiag          3608       0.000       0.499    13.20
elaps:  cdiag1         3608       0.000       0.027     0.71
elaps:  cdiag2         3608       0.000       0.090     2.38
elaps:  cdiag3         3608       0.000       0.348     9.20
elaps:  cdiag4         3608       0.000       0.016     0.42
elaps:  c-eigvec       1804       0.000       0.510    13.49
elaps:  c-buildD       1804       0.000       0.222     5.87
elaps:  DHSCF4            1       0.038       0.038     1.01
elaps:  dfscf             1       0.034       0.034     0.90
elaps:  overfsm           1       0.001       0.001     0.03
elaps:  optical           1       0.000       0.000     0.00

>> End of run:   1-OCT-2015  15:38:11