>> Start of run:  13-OCT-2015  14:52:21

reinit: Reading from standard input
************************** Dump of input data file ****************************
# Basic input file for Siesta code: Pariodic Calculation     #
# System: Graphene (2D)                                      #
# SystemName: name of the system                             #
# SystemName graphene (in this case)                         #
# SystemLabel: name used in output files (nickname)          #
# SystemLabel graphene                                       #
# (After a successful run, you should have files like this:  #
# benzene.DM : Density matrix                                #
# benzene.XV: Final positions and velocities                 #
# ...)                                                       #
SystemName    graphene
SystemLabel   graphene
# ============= Atomic informations ===============
NumberOfAtoms       4
NumberOfSpecies      1
%block ChemicalSpeciesLabel
 1    6		C
%endblock ChemicalSpeciesLabel
# ======== lattice, cell and coordinates ==========
# === lattice constant ===
LatticeConstant   2.460 Ang
#====== Lattice Vectors - Simulation box ======
%block LatticeVectors
  4.260    1.230000    0.000000
  2.130   -1.230000    0.000000
  0.000    0.000000   1.000000
%endblock LatticeVectors
# === Coordinates and formats (input and output) ===
AtomicCoordinatesFormat Ang
AtomCoorFormatOut  Ang
%block AtomicCoordinatesAndAtomicSpecies
    0.000000    0.000000    0.000000	1
    1.420000    0.000000    0.000000	1
    2.130000    1.229000    0.000000	1
    3.550000    1.229000    0.000000	1
%endblock AtomicCoordinatesAndAtomicSpecies
# ============== kspace Grid and cutoff =============
%block kgrid_Monkhorst_Pack
 9   0   0     0.0
 0   9   0     0.0
 0   0   1     0.0
%endblock kgrid_Monkhorst_Pack
MeshCutoff        50 Ry
# ============== Block to create supercells  =============
#%blockSuperCell
# 1   0   0
# 1   1   0
# 0   0   9
#%endblockSuperCell
#==== hold some atoms in the CG relaxation ====
#%block GeometryConstraints
#position from  1 to  180
#%endblock GeometryConstraints
#============== General variables ===================
#= Basis =
PAO.BasisSize     DZP
PAO.EnergyShift   0.03 eV
#============== MD variables =====================
# Type of Run              MD, FC, CG
# SCF  calculation         MD.NumCGsteps     0
# Structure relaxation     MD.NumCGsteps     600
MD.TypeOfRun      CG
MD.NumCGsteps     0
MD.MaxForceTol    0.01  eV/Ang
#=================== SCF variables ========================
# SCF max number of iterations - single point calculation.
# Mixing - 0.1 means 10 percent of the previous density.
# Pulay - how many densities will be considered.
# Tolerance - criteria to stop
MaxSCFIterations      300
DM.MixingWeight       0.04
DM.NumberPulay        3
DM.Tolerance           1.d-4
#== Functional ==
XC.functional       LDA
XC.authors          CA
#======== Solution method =====================
# diagon, order-N or transiesta (transiesta)
# If the system is periodic and has many kpt
# ParallelOverK    .true.
SolutionMethod  diagon
#====================== Electronic temperature (FD or MP) ====================
#=============== determines the occupation of the electronic states ==========
OccupationFunction     FD
ElectronicTemperature  50 meV
#=============== Write ================
WriteMullikenPop                1
WriteBands                      .false.
SaveRho                         T
SaveDeltaRho                    T
SaveHS                          .false.
SaveElectrostaticPotential      .false.
SaveTotalPotential              no
WriteCoorXmol                   .true.
WriteMDXmol                     .true.
#WriteMDhistory                  .false.
WriteEigenvalues                yes
#=============== Calculation Reestart ================
#UseSaveData     true
#DM.UseSaveDM    true
#MD.UseSaveXV    true
#MD.UseSaveCG    true
************************** End of input data file *****************************

reinit: -----------------------------------------------------------------------
reinit: System Name: graphene
reinit: -----------------------------------------------------------------------
reinit: System Label: graphene
reinit: -----------------------------------------------------------------------

initatom: Reading input for the pseudopotentials and atomic orbitals ----------
 Species number:            1  Label: C Atomic number:           6
Ground state valence configuration:   2s02  2p02
Reading pseudopotential information in formatted form from C.psf

Valence configuration for pseudopotential generation:
2s( 2.00) rc: 1.25
2p( 2.00) rc: 1.25
3d( 0.00) rc: 1.25
4f( 0.00) rc: 1.25
For C, standard SIESTA heuristics set lmxkb to 3
 (one more than the basis l, including polarization orbitals).
Use PS.lmax or PS.KBprojectors blocks to override.

<basis_specs>
C                    Z=   6    Mass=  12.010        Charge= 0.17977+309
Lmxo=1 Lmxkb= 3    BasisType=split      Semic=F
L=0  Nsemic=0  Cnfigmx=2
          n=1  nzeta=2  polorb=0
            splnorm:   0.15000
               vcte:    0.0000
               rinn:    0.0000
                rcs:    0.0000      0.0000
            lambdas:    1.0000      1.0000
L=1  Nsemic=0  Cnfigmx=2
          n=1  nzeta=2  polorb=1
            splnorm:   0.15000
               vcte:    0.0000
               rinn:    0.0000
                rcs:    0.0000      0.0000
            lambdas:    1.0000      1.0000
L=0  Nkbl=1  erefs: 0.17977+309
L=1  Nkbl=1  erefs: 0.17977+309
L=2  Nkbl=1  erefs: 0.17977+309
L=3  Nkbl=1  erefs: 0.17977+309
</basis_specs>

atom: Called for C                     (Z =   6)

read_vps: Pseudopotential generation method:
read_vps: ATM3      Troullier-Martins
Total valence charge:    4.00000

read_vps: Pseudopotential includes a core correction:
read_vps: Pseudo-core for xc-correction

xc_check: Exchange-correlation functional:
xc_check: Ceperley-Alder
xc_check: WARNING: Pseudopotential generated with GGA Perdew, Burke & Ernzerhof 1996 functional
V l=0 = -2*Zval/r beyond r=  1.3270
V l=1 = -2*Zval/r beyond r=  1.3270
V l=2 = -2*Zval/r beyond r=  1.3270
V l=3 = -2*Zval/r beyond r=  1.3270
All V_l potentials equal beyond r=  1.2311
This should be close to max(r_c) in ps generation
All pots = -2*Zval/r beyond r=  1.3270

VLOCAL1: 99.0% of the norm of Vloc inside     28.641 Ry
VLOCAL1: 99.9% of the norm of Vloc inside     65.273 Ry
atom: Maximum radius for 4*pi*r*r*local-pseudopot. charge    1.48507
atom: Maximum radius for r*vlocal+2*Zval:    1.27815
GHOST: No ghost state for L =  0
GHOST: No ghost state for L =  1
GHOST: No ghost state for L =  2
GHOST: No ghost state for L =  3

KBgen: Kleinman-Bylander projectors:
   l= 0   rc=  1.466618   el= -0.993243   Ekb=  7.919456   kbcos=  0.278713
   l= 1   rc=  1.485071   el= -0.377706   Ekb= -4.691706   kbcos= -0.274355
   l= 2   rc=  1.641300   el=  0.002326   Ekb= -1.224148   kbcos= -0.005036
   l= 3   rc=  1.747182   el=  0.003420   Ekb= -0.477402   kbcos= -0.000509

KBgen: Total number of  Kleinman-Bylander projectors:   16
atom: -------------------------------------------------------------------------

atom: SANKEY-TYPE ORBITALS:
atom: Selected multiple-zeta basis: split

SPLIT: Orbitals with angular momentum L= 0

SPLIT: Basis orbitals for state 2s

SPLIT: PAO cut-off radius determined from an
SPLIT: energy shift=  0.002205 Ry

   izeta = 1
                 lambda =    1.000000
                     rc =    5.382558
                 energy =   -0.991266
                kinetic =    0.848090
    potential(screened) =   -1.839356
       potential(ionic) =   -5.389969

   izeta = 2
                 rmatch =    3.518811
              splitnorm =    0.150000
                 energy =   -0.876517
                kinetic =    1.289828
    potential(screened) =   -2.166345
       potential(ionic) =   -5.963401

SPLIT: Orbitals with angular momentum L= 1

SPLIT: Basis orbitals for state 2p

SPLIT: PAO cut-off radius determined from an
SPLIT: energy shift=  0.002205 Ry

   izeta = 1
                 lambda =    1.000000
                     rc =    6.740804
                 energy =   -0.375521
                kinetic =    2.326421
    potential(screened) =   -2.701942
       potential(ionic) =   -6.085463

   izeta = 2
                 rmatch =    3.840617
              splitnorm =    0.150000
                 energy =   -0.259623
                kinetic =    3.462988
    potential(screened) =   -3.722611
       potential(ionic) =   -7.510262

POLgen: Perturbative polarization orbital with L=  2

POLgen: Polarization orbital for state 2p

   izeta = 1
                     rc =    6.740804
                 energy =    0.936005
                kinetic =    1.965355
    potential(screened) =   -1.029351
       potential(ionic) =   -3.693090
atom: Total number of Sankey-type orbitals: 13

atm_pop: Valence configuration (for local Pseudopot. screening):
 2s( 2.00)
 2p( 2.00)
Vna: chval, zval:    4.00000   4.00000

Vna:  Cut-off radius for the neutral-atom potential:   6.740804
comcore: Pseudo-core radius Rcore=  1.791422

atom: _________________________________________________________________________

prinput: Basis input ----------------------------------------------------------

PAO.BasisType split

%block ChemicalSpeciesLabel
    1    6 C                       # Species index, atomic number, species label
%endblock ChemicalSpeciesLabel

%block PAO.Basis                 # Define Basis set
C                     2                    # Species label, number of l-shells
 n=2   0   2                         # n, l, Nzeta
   5.383      3.519
   1.000      1.000
 n=2   1   2 P   1                   # n, l, Nzeta, Polarization, NzetaPol
   6.741      3.841
   1.000      1.000
%endblock PAO.Basis

prinput: ----------------------------------------------------------------------

coor:   Atomic-coordinates input format  =     Cartesian coordinates
coor:                                          (in Angstroms)

siesta: Atomic coordinates (Bohr) and species
siesta:      0.00000   0.00000   0.00000  1        1
siesta:      2.68341   0.00000   0.00000  1        2
siesta:      4.02512   2.32247   0.00000  1        3
siesta:      6.70853   2.32247   0.00000  1        4

siesta: System type = bulk

initatomlists: Number of atoms, orbitals, and projectors:      4    52    64

siesta: ******************** Simulation parameters ****************************
siesta:
siesta: The following are some of the parameters of the simulation.
siesta: A complete list of the parameters used, including default values,
siesta: can be found in file out.fdf
siesta:
redata: Non-Collinear-spin run           =     F
redata: SpinPolarized (Up/Down) run      =     F
redata: Number of spin components        =     1
redata: Long output                      =     F
redata: Number of Atomic Species         =        1
redata: Charge density info will appear in .RHO file
redata: Write Mulliken Pop.              =     Atomic and Orbital charges
redata: Mesh Cutoff                      =    50.0000  Ry
redata: Net charge of the system         =     0.0000 |e|
redata: Max. number of SCF Iter          =      300
redata: Performing Pulay mixing using    =     3 iterations
redata: Mix DM in first SCF step ?       =     F
redata: Write Pulay info on disk?        =     F
redata: Discard 1st Pulay DM after  kick =     F
redata: New DM Mixing Weight             =     0.0400
redata: New DM Occupancy tolerance       = 0.000000000001
redata: No kicks to SCF
redata: DM Mixing Weight for Kicks       =     0.5000
redata: DM Tolerance for SCF             =     0.000100
redata: Require Energy convergence for SCF =     F
redata: DM Energy tolerance for SCF      =     0.000100 eV
redata: Require Harris convergence for SCF =     F
redata: DM Harris energy tolerance for SCF =     0.000100 eV
redata: Using Saved Data (generic)   =     F
redata: Use continuation files for DM    =     F
redata: Neglect nonoverlap interactions  =     F
redata: Method of Calculation            =     Diagonalization
redata: Divide and Conquer               =     T
redata: Electronic Temperature           =     0.0037  Ry
redata: Fix the spin of the system       =     F
redata: Dynamics option                  =     CG coord. optimization
redata: Variable cell                    =     F
redata: Use continuation files for CG    =     F
redata: Max atomic displ per move        =     0.2000  Bohr
redata: Maximum number of CG moves       =        0
redata: Force tolerance                  =     0.0004  Ry/Bohr
redata: ***********************************************************************
Total number of electrons:    16.000000
Total ionic charge:    16.000000

* ProcessorY, Blocksize:    1  24

 Kpoints in:           45 . Kpoints trimmed:           41

siesta: k-grid: Number of k-points =    41
siesta: k-grid: Cutoff (effective) =     1.230 Ang
siesta: k-grid: Supercell and displacements
siesta: k-grid:    9   0   0      0.000
siesta: k-grid:    0   9   0      0.000
siesta: k-grid:    0   0   1      0.000
Naive supercell factors:     2    3    8
Auxiliary supercell needs to be larger than naive one...

superc: Internal auxiliary supercell:     3 x     3 x     8  =      72
superc: Number of atoms, orbitals, and projectors:    288   3744   4608

siesta:                 ==============================
                            Begin CG move =      0

superc: Internal auxiliary supercell:     3 x     3 x     8  =      72
superc: Number of atoms, orbitals, and projectors:    288   3744   4608

outcell: Unit cell vectors (Ang):
       10.479600    3.025800    0.000000
        5.239800   -3.025800    0.000000
        0.000000    0.000000    2.460000

outcell: Cell vector modules (Ang)   :   10.907680    6.050700    2.460000
outcell: Cell angles (23,13,12) (deg):     90.0000     90.0000     46.1101
outcell: Cell volume (Ang**3)        :    117.0069
New_DM. Step:     1
Initializing Density Matrix...

InitMesh: MESH =    48 x    30 x    18 =       25920
InitMesh: Mesh cutoff (required, used) =    50.000    72.878 Ry

stepf: Fermi-Dirac step function

siesta: Program's energy decomposition (eV):
siesta: Ebs     =      -227.628831
siesta: Eions   =      1264.537926
siesta: Ena     =       445.004423
siesta: Ekin    =       345.537336
siesta: Enl     =        37.110372
siesta: DEna    =         0.000000
siesta: DUscf   =         0.000000
siesta: DUext   =         0.000000
siesta: Exc     =      -172.337500
siesta: eta*DQ  =         0.000000
siesta: Emadel  =         0.000000
siesta: Emeta   =         0.000000
siesta: Emolmec =         0.000000
siesta: Ekinion =         0.000000
siesta: Eharris =      -612.101306
siesta: Etot    =      -609.223295
siesta: FreeEng =      -609.223295

siesta: E_KS(eV) =             -610.9267

siesta: E_KS - E_eggbox =      -610.9267

siesta: Atomic forces (eV/Ang):
   Tot    0.006387   -0.014139   -0.000005
   Max    2.596181
   Res    1.564849    sqrt( Sum f_i^2 / 3N )
   Max    2.596181    constrained

Stress-tensor-Voigt (kbar):       15.38       26.27      272.20      -28.91        0.00        0.00
(Free)E + p*V (eV/cell)     -618.5742
Target enthalpy (eV/cell)     -610.9342

mulliken: Mulliken Atomic and Orbital Populations:

Species: C
Atom  Qatom  Qorb
               2Pdxy   2Pdyz   2Pdz2   2Pdxz   2Pdx2-y2
   1  4.007   1.343   0.333   0.556   0.305   0.977   0.153  -0.039   0.272
              0.034   0.000   0.039   0.015   0.020
   2  3.993   0.687   0.522   0.621   0.731   0.542   0.346  -0.029   0.444
              0.033   0.011   0.025   0.000   0.060
   3  3.992   0.686   0.522   0.622   0.732   0.542   0.345  -0.030   0.443
              0.033   0.011   0.025   0.000   0.060
   4  4.008   1.346   0.332   0.555   0.304   0.976   0.153  -0.039   0.273
              0.034   0.000   0.039   0.015   0.020

mulliken: Qtot =       16.000

coxmol: Writing XMOL coordinates into file graphene.xyz

siesta: Eigenvalues (eV):
  ik is    eps
   1  1 -23.71 -21.13 -16.77 -12.38 -10.77 -10.59  -8.25  -6.88  -6.36  -5.54
         -4.57  -1.22   1.74   2.47   3.16   3.90   4.33   5.15   5.86   6.19
          7.52   7.76   8.36  10.15  10.76  13.18  13.72  16.80  20.19  21.66
         23.50  23.99  24.24  29.13  29.21  31.48  33.18  34.14  36.50  38.14
         41.16  42.47  43.63  46.79  48.21  48.92  50.32  53.94  59.80  63.44
         74.20  79.33
   2  1 -23.71 -21.13 -16.77 -12.38 -10.77 -10.58  -8.26  -6.88  -6.34  -5.55
         -4.57  -1.22   1.74   2.58   3.16   3.82   4.39   5.15   5.52   6.43
          7.44   7.92   8.39  10.18  10.75  13.10  13.73  16.70  20.15  21.79
         23.50  23.99  24.06  29.10  29.22  31.21  33.18  34.07  36.56  38.19
         41.73  42.39  43.74  46.88  48.21  48.79  50.21  53.84  59.91  63.79
         73.92  79.43
   3  1 -23.71 -21.13 -16.77 -12.38 -10.76 -10.57  -8.28  -6.88  -6.32  -5.57
         -4.57  -1.22   1.74   2.76   3.16   3.71   4.45   5.08   5.25   6.62
          7.37   8.09   8.44  10.25  10.72  12.97  13.73  16.53  20.10  21.99
         23.51  23.82  23.98  29.07  29.23  30.82  33.18  34.01  36.63  38.26
         42.26  42.43  43.97  47.04  48.31  48.57  49.94  53.80  60.03  64.36
         73.47  79.58
   4  1 -23.71 -21.13 -16.77 -12.38 -10.76 -10.57  -8.30  -6.88  -6.30  -5.58
         -4.57  -1.22   1.74   2.94   3.16   3.63   4.48   4.88   5.19   6.74
          7.31   8.21   8.50  10.38  10.65  12.85  13.73  16.38  20.04  22.16
         23.51  23.64  23.98  29.04  29.24  30.49  33.17  33.98  36.69  38.33
         42.15  42.86  44.25  47.21  48.35  48.56  49.55  53.88  60.10  64.89
         73.05  79.71
   5  1 -23.71 -21.13 -16.77 -12.38 -10.76 -10.56  -8.31  -6.88  -6.29  -5.58
         -4.57  -1.22   1.74   3.02   3.16   3.60   4.49   4.78   5.18   6.79
          7.29   8.25   8.52  10.52  10.54  12.81  13.73  16.31  20.02  22.23
         23.52  23.58  23.98  29.03  29.24  30.36  33.17  33.97  36.71  38.36
         42.10  42.98  44.37  47.29  48.24  48.84  49.23  53.94  60.12  65.11
         72.87  79.75
   6  1 -23.71 -21.13 -16.77 -12.39 -10.76 -10.59  -8.24  -6.88  -6.37  -5.49
         -4.57  -1.22   1.73   2.38   3.14   3.71   4.11   5.53   5.79   6.36
          7.53   7.79   8.40  10.15  10.75  13.11  13.77  16.72  20.00  21.59
         23.50  24.00  24.08  29.13  29.19  30.88  33.27  34.14  36.61  38.10
         41.22  42.48  43.21  46.70  47.47  49.20  49.42  53.89  59.94  63.43
         73.67  79.07
   7  1 -23.71 -21.13 -16.77 -12.39 -10.76 -10.59  -8.24  -6.88  -6.37  -5.50
         -4.57  -1.22   1.73   2.38   3.13   3.76   4.02   5.54   6.09   6.13
          7.37   7.86   8.43  10.12  10.72  13.19  13.76  16.73  19.98  21.55
         23.50  24.00  24.11  29.12  29.21  31.06  33.28  34.16  36.59  38.11
         40.86  42.51  43.39  46.72  47.55  49.15  49.26  53.96  60.11  63.35
         73.77  78.95
   8  1 -23.71 -21.13 -16.77 -12.39 -10.76 -10.58  -8.26  -6.88  -6.35  -5.51
         -4.57  -1.22   1.73   2.47   3.15   3.76   3.96   5.52   5.76   6.45
          7.27   7.96   8.48  10.11  10.69  13.18  13.75  16.64  19.93  21.65
         23.50  23.96  24.00  29.09  29.22  30.99  33.27  34.11  36.62  38.17
         41.03  42.46  43.70  46.84  47.58  48.95  49.03  53.98  60.30  63.64
         73.58  78.93
   9  1 -23.71 -21.13 -16.77 -12.39 -10.76 -10.57  -8.28  -6.88  -6.33  -5.52
         -4.57  -1.22   1.74   2.59   3.20   3.66   3.99   5.30   5.63   6.71
          7.22   8.07   8.54  10.16  10.66  13.09  13.75  16.49  19.87  21.83
         23.50  23.74  23.99  29.06  29.22  30.70  33.27  34.06  36.67  38.24
         41.48  42.35  44.10  47.02  47.62  48.70  48.74  54.05  60.40  64.19
         73.17  79.02
  10  1 -23.71 -21.13 -16.77 -12.39 -10.76 -10.56  -8.30  -6.88  -6.31  -5.53
         -4.57  -1.22   1.74   2.69   3.29   3.57   4.06   4.97   5.62   6.88
          7.21   8.16   8.57  10.27  10.61  12.96  13.75  16.33  19.83  22.00
         23.51  23.56  23.99  29.04  29.22  30.33  33.27  34.02  36.72  38.31
         41.92  42.23  44.43  47.17  47.70  48.50  48.50  54.12  60.36  64.76
         72.72  79.16
[...]
         23.09  23.48  24.07  28.43  29.02  29.16  33.95  34.41  35.68  37.99
         39.62  41.31  42.79  45.67  46.37  47.01  50.60  53.94  61.92  63.28
         70.82  75.68
  40  1 -23.70 -21.13 -16.77 -12.47 -10.71 -10.55  -8.28  -6.88  -6.36  -5.20
         -4.57  -1.22   1.73   1.96   2.37   3.27   3.75   5.17   6.91   7.10
          7.88   8.08   9.18   9.87   9.96  13.11  13.96  15.77  18.15  20.75
         23.07  23.49  24.06  28.29  29.03  29.13  33.95  34.56  35.58  38.07
         40.28  40.96  42.73  45.60  46.54  46.88  50.30  54.02  61.95  63.84
         70.29  75.68
  41  1 -23.70 -21.13 -16.77 -12.47 -10.70 -10.54  -8.28  -6.88  -6.36  -5.20
         -4.57  -1.22   1.73   1.97   2.38   3.23   3.90   4.98   6.93   7.12
          7.98   8.21   8.93   9.90  10.01  13.10  13.93  15.73  18.16  20.73
         23.08  23.49  24.06  28.20  29.04  29.11  33.95  34.61  35.55  38.09
         40.25  41.13  42.70  45.57  46.60  46.84  50.20  54.05  61.94  64.12
         70.04  75.70
siesta: Fermi energy =      -6.628974 eV

siesta: Program's energy decomposition (eV):
siesta: Ebs     =      -220.949310
siesta: Eions   =      1264.537926
siesta: Ena     =       445.004423
siesta: Ekin    =       384.337023
siesta: Enl     =         7.590007
siesta: DEna    =        -9.585363
siesta: DUscf   =         1.560424
siesta: DUext   =         0.000000
siesta: Exc     =      -175.295304
siesta: eta*DQ  =         0.000000
siesta: Emadel  =         0.000000
siesta: Emeta   =         0.000000
siesta: Emolmec =         0.000000
siesta: Ekinion =         0.000000
siesta: Eharris =      -610.926683
siesta: Etot    =      -610.926716
siesta: FreeEng =      -610.934202

siesta: Final energy (eV):
siesta:  Band Struct. =    -220.949310
siesta:       Kinetic =     384.337023
siesta:       Hartree =     492.728034
siesta:    Ext. field =       0.000000
siesta:   Exch.-corr. =    -175.295304
siesta:  Ion-electron =   -1367.214692
siesta:       Ion-ion =      54.518224
siesta:       Ekinion =       0.000000
siesta:         Total =    -610.926716

siesta: Atomic forces (eV/Ang):
siesta:      1    0.867740   -1.070239   -0.000005
siesta:      2   -2.593180    2.463188    0.000001
siesta:      3    2.596181   -2.466717   -0.000003
siesta:      4   -0.864355    1.059629    0.000002
siesta: ----------------------------------------
siesta:    Tot    0.006387   -0.014139   -0.000005

siesta: Stress tensor (static) (eV/Ang**3):
siesta:     0.009597   -0.018046    0.000000
siesta:    -0.018043    0.016399    0.000000
siesta:     0.000000    0.000000    0.169891

siesta: Cell volume =        117.006851 Ang**3

siesta: Pressure (static):
siesta:                Solid            Molecule  Units
siesta:          -0.00071115         -0.00061953  Ry/Bohr**3
siesta:          -0.06529545         -0.05688321  eV/Ang**3
siesta:        -104.61598040        -91.13794083  kBar
(Free)E+ p_basis*V_orbitals  =        -608.241678
(Free)Eharris+ p_basis*V_orbitals  =        -608.241638

elaps:  Routine       Calls   Time/call    Tot.time        %
elaps:  siesta            1      35.298      35.298   100.00
elaps:  Setup             1       0.077       0.077     0.22
elaps:  bands             1       0.000       0.000     0.00
elaps:  writewave         1       0.001       0.001     0.00
elaps:  KSV_init          1       0.000       0.000     0.00
elaps:  IterMD            1      34.968      34.968    99.07
elaps:  hsparse           1       0.008       0.008     0.02
elaps:  overlap           1       0.119       0.119     0.34
elaps:  IterSCF          55       0.616      33.890    96.01
elaps:  kinefsm           2       0.064       0.128     0.36
elaps:  nlefsm            2       0.301       0.602     1.71
elaps:  DHSCF            57       0.439      24.998    70.82
elaps:  DHSCF1            1       0.020       0.020     0.06
elaps:  DHSCF2            1       0.280       0.280     0.79
elaps:  REORD           348       0.000       0.018     0.05
elaps:  POISON           58       0.003       0.187     0.53
elaps:  DHSCF3           57       0.427      24.348    68.98
elaps:  rhoofd           57       0.230      13.097    37.10
elaps:  cellXC           57       0.005       0.280     0.79
elaps:  vmat             56       0.192      10.747    30.45
elaps:  MolMec            2       0.000       0.000     0.00
elaps:  diagon           55       0.167       9.207    26.08
elaps:  c-eigval       2255       0.001       2.723     7.71
elaps:  c-buildHS      2255       0.001       1.732     4.91
elaps:  cdiag          4510       0.001       3.234     9.16
elaps:  cdiag1         4510       0.000       0.214     0.61
elaps:  cdiag2         4510       0.000       0.575     1.63
elaps:  cdiag3         4510       0.001       2.334     6.61
elaps:  cdiag4         4510       0.000       0.078     0.22
elaps:  c-eigvec       2255       0.002       3.993    11.31
elaps:  c-buildD       2255       0.001       2.420     6.86
elaps:  DHSCF4            1       0.347       0.347     0.98
elaps:  dfscf             1       0.320       0.320     0.91
elaps:  overfsm           1       0.013       0.013     0.04
elaps:  optical           1       0.000       0.000     0.00

>> End of run:  13-OCT-2015  14:52:56