>> Start of run:  24-SEP-2015  15:50:44

reinit: Reading from standard input
************************** Dump of input data file ****************************
SystemName    graphene
SystemLabel   graphene
# ============= Atomic informations ===============
NumberOfAtoms        4
NumberOfSpecies      1
%block ChemicalSpeciesLabel
 1    6  C
%endblock ChemicalSpeciesLabel
# ======== lattice, cell and coordinates ==========
# === lattice constant ===
LatticeConstant   2.475376 Ang
#====== Lattice Vectors - Simulation box ======
%block LatticeVectors
  1.732050808000     1.00000    0.000000
  0.866025403784    -0.50000    0.000000
  0.000              0.000000   6.05968547808
%endblock LatticeVectors
# === Coordinates and formats (input and output) ===
AtomicCoordinatesFormat Ang
AtomCoorFormatOut  Ang
%block AtomicCoordinatesAndAtomicSpecies
  0.000   0.000   6.000    1
  1.420   0.000   6.000    1
  2.130   1.229   6.000	1
  3.550   1.229   6.000	1
%endblock AtomicCoordinatesAndAtomicSpecies
# ============== kspace Grid and cutoff =============
%block kgrid_Monkhorst_Pack
 15   0    0     0.0
 0    15   0     0.0
 0    0    1     0.0
%endblock kgrid_Monkhorst_Pack
MeshCutoff   200  Ry
# ============== Block to create supercells  =============
#%blockSuperCell
# 1   0   0
# 1   1   0
# 0   0   9
#%endblockSuperCell
#==== hold some atoms in the CG relaxation ====
#%block GeometryConstraints
#position from  1 to  180
#%endblock GeometryConstraints
#============== General variables ===================
#= Basis =
PAO.BasisSize     DZP
PAO.EnergyShift   0.03 eV
#============== MD variables =====================
# Type of Run              MD, FC, CG
# SCF  calculation         MD.NumCGsteps     0
# Structure relaxation     MD.NumCGsteps     600
MD.TypeOfRun      CG
MD.NumCGsteps     0
MD.MaxForceTol    0.01  eV/Ang
#=================== SCF variables ========================
# SCF max number of iterations - single point calculation.
# Mixing - 0.1 means 10 percent of the previous density.
# Pulay - how many densities will be considered.
# Tolerance - criteria to stop
MaxSCFIterations      300
DM.MixingWeight       0.04
DM.NumberPulay        3
DM.Tolerance           1.d-4
#== Functional ==
XC.functional       LDA
XC.authors          CA
#======== Solution method =====================
# diagon, order-N or transiesta (transiesta)
# If the system is periodic and has many kpt
# ParallelOverK    .true.
SolutionMethod  diagon
#====================== Electronic temperature (FD or MP) ====================
#=============== determines the occupation of the electronic states ==========
OccupationFunction     FD
ElectronicTemperature  50 meV
#=============== Write ================
WriteMullikenPop                1
WriteBands                      T
SaveRho                         T
SaveDeltaRho                    T
SaveHS                          .false.
SaveElectrostaticPotential      .false.
SaveTotalPotential              no
WriteCoorXmol                   .true.
WriteMDXmol                     .true.
#WriteMDhistory                  .false.
WriteEigenvalues                yes
#============== Automatic Cell relaxation ==============
#MD.VariableCell   .true.
#========== bands, dos and pdos ====================
%block ProjectedDensityOfStates
-10.00 3.00  0.10 2000 eV
%endblock ProjectedDensityOfStates
%block PDOS.kgrid_Monkhorst_Pack
    150    0     0     0.0
    0    150     0     0.0
    0      0     1     0.0
%endblock PDOS.kgrid_Monkhorst_Pack
BandLineScale  pi/a
%block BandLines
1      1.155   0.667   0.000    K      # 75 point from gamma to X
150    0.000   0.000   0.000    \Gamma # Beguin at gamma
130    1.155   0.000   0.000    M
75     1.155   0.667   0.000    K      # 75 point from gamma to X
150    0.000   0.000   0.000    \Gamma # Beguin at gamma
%endblock BandLines
#========= Reestart the calculation ===============
# XV - coordinates
# DM - density matrix
# CG - last conjugated gradiend step
UseSaveData           .true.
MD.UseSaveXV          .true.
DM.UseSaveDM          .true.
MD.UseSaveCG          .true.
WriteCoorXmol                   .true.
************************** End of input data file *****************************

reinit: -----------------------------------------------------------------------
reinit: System Name: graphene
reinit: -----------------------------------------------------------------------
reinit: System Label: graphene
reinit: -----------------------------------------------------------------------

initatom: Reading input for the pseudopotentials and atomic orbitals ----------
 Species number:            1  Label: C Atomic number:           6
Ground state valence configuration:   2s02  2p02
Reading pseudopotential information in formatted form from C.psf

Valence configuration for pseudopotential generation:
2s( 2.00) rc: 1.25
2p( 2.00) rc: 1.25
3d( 0.00) rc: 1.25
4f( 0.00) rc: 1.25
For C, standard SIESTA heuristics set lmxkb to 3
 (one more than the basis l, including polarization orbitals).
Use PS.lmax or PS.KBprojectors blocks to override.

<basis_specs>
C                    Z=   6    Mass=  12.010        Charge= 0.17977+309
Lmxo=1 Lmxkb= 3    BasisType=split      Semic=F
L=0  Nsemic=0  Cnfigmx=2
          n=1  nzeta=2  polorb=0
            splnorm:   0.15000
               vcte:    0.0000
               rinn:    0.0000
                rcs:    0.0000      0.0000
            lambdas:    1.0000      1.0000
L=1  Nsemic=0  Cnfigmx=2
          n=1  nzeta=2  polorb=1
            splnorm:   0.15000
               vcte:    0.0000
               rinn:    0.0000
                rcs:    0.0000      0.0000
            lambdas:    1.0000      1.0000
L=0  Nkbl=1  erefs: 0.17977+309
L=1  Nkbl=1  erefs: 0.17977+309
L=2  Nkbl=1  erefs: 0.17977+309
L=3  Nkbl=1  erefs: 0.17977+309
</basis_specs>

atom: Called for C                     (Z =   6)

read_vps: Pseudopotential generation method:
read_vps: ATM3      Troullier-Martins
Total valence charge:    4.00000

read_vps: Pseudopotential includes a core correction:
read_vps: Pseudo-core for xc-correction

xc_check: Exchange-correlation functional:
xc_check: Ceperley-Alder
xc_check: WARNING: Pseudopotential generated with GGA Perdew, Burke & Ernzerhof 1996 functional
V l=0 = -2*Zval/r beyond r=  1.3270
V l=1 = -2*Zval/r beyond r=  1.3270
V l=2 = -2*Zval/r beyond r=  1.3270
V l=3 = -2*Zval/r beyond r=  1.3270
All V_l potentials equal beyond r=  1.2311
This should be close to max(r_c) in ps generation
All pots = -2*Zval/r beyond r=  1.3270

VLOCAL1: 99.0% of the norm of Vloc inside     28.641 Ry
VLOCAL1: 99.9% of the norm of Vloc inside     65.273 Ry
atom: Maximum radius for 4*pi*r*r*local-pseudopot. charge    1.48507
atom: Maximum radius for r*vlocal+2*Zval:    1.27815
GHOST: No ghost state for L =  0
GHOST: No ghost state for L =  1
GHOST: No ghost state for L =  2
GHOST: No ghost state for L =  3

KBgen: Kleinman-Bylander projectors:
   l= 0   rc=  1.466618   el= -0.993243   Ekb=  7.919456   kbcos=  0.278713
   l= 1   rc=  1.485071   el= -0.377706   Ekb= -4.691706   kbcos= -0.274355
   l= 2   rc=  1.641300   el=  0.002326   Ekb= -1.224148   kbcos= -0.005036
   l= 3   rc=  1.747182   el=  0.003420   Ekb= -0.477402   kbcos= -0.000509

KBgen: Total number of  Kleinman-Bylander projectors:   16
atom: -------------------------------------------------------------------------

atom: SANKEY-TYPE ORBITALS:
atom: Selected multiple-zeta basis: split

SPLIT: Orbitals with angular momentum L= 0

SPLIT: Basis orbitals for state 2s

SPLIT: PAO cut-off radius determined from an
SPLIT: energy shift=  0.002205 Ry

   izeta = 1
                 lambda =    1.000000
                     rc =    5.382558
                 energy =   -0.991266
                kinetic =    0.848090
    potential(screened) =   -1.839356
       potential(ionic) =   -5.389969

   izeta = 2
                 rmatch =    3.518811
              splitnorm =    0.150000
                 energy =   -0.876517
                kinetic =    1.289828
    potential(screened) =   -2.166345
       potential(ionic) =   -5.963401

SPLIT: Orbitals with angular momentum L= 1

SPLIT: Basis orbitals for state 2p

SPLIT: PAO cut-off radius determined from an
SPLIT: energy shift=  0.002205 Ry

   izeta = 1
                 lambda =    1.000000
                     rc =    6.740804
                 energy =   -0.375521
                kinetic =    2.326421
    potential(screened) =   -2.701942
       potential(ionic) =   -6.085463

   izeta = 2
                 rmatch =    3.840617
              splitnorm =    0.150000
                 energy =   -0.259623
                kinetic =    3.462988
    potential(screened) =   -3.722611
       potential(ionic) =   -7.510262

POLgen: Perturbative polarization orbital with L=  2

POLgen: Polarization orbital for state 2p

   izeta = 1
                     rc =    6.740804
                 energy =    0.936005
                kinetic =    1.965355
    potential(screened) =   -1.029351
       potential(ionic) =   -3.693090
atom: Total number of Sankey-type orbitals: 13

atm_pop: Valence configuration (for local Pseudopot. screening):
 2s( 2.00)
 2p( 2.00)
Vna: chval, zval:    4.00000   4.00000

Vna:  Cut-off radius for the neutral-atom potential:   6.740804
comcore: Pseudo-core radius Rcore=  1.791422

atom: _________________________________________________________________________

prinput: Basis input ----------------------------------------------------------

PAO.BasisType split

%block ChemicalSpeciesLabel
    1    6 C                       # Species index, atomic number, species label
%endblock ChemicalSpeciesLabel

%block PAO.Basis                 # Define Basis set
C                     2                    # Species label, number of l-shells
 n=2   0   2                         # n, l, Nzeta
   5.383      3.519
   1.000      1.000
 n=2   1   2 P   1                   # n, l, Nzeta, Polarization, NzetaPol
   6.741      3.841
   1.000      1.000
%endblock PAO.Basis

prinput: ----------------------------------------------------------------------

coor:   Atomic-coordinates input format  =     Cartesian coordinates
coor:                                          (in Angstroms)

ioxv: Reading coordinates and velocities from file
! Info in XV file prevails over previous structure input

siesta: Atomic coordinates (Bohr) and species
siesta:     -0.01595  -0.00856  11.33834  1        1
siesta:      2.68683  -0.00965  11.33836  1        2
siesta:      4.02207   2.33205  11.33835  1        3
siesta:      6.72458   2.33109  11.33835  1        4

siesta: System type = slab

initatomlists: Number of atoms, orbitals, and projectors:      4    52    64

siesta: ******************** Simulation parameters ****************************
siesta:
siesta: The following are some of the parameters of the simulation.
siesta: A complete list of the parameters used, including default values,
siesta: can be found in file out.fdf
siesta:
redata: Non-Collinear-spin run           =     F
redata: SpinPolarized (Up/Down) run      =     F
redata: Number of spin components        =     1
redata: Long output                      =     F
redata: Number of Atomic Species         =        1
[...]
InitMesh: Mesh cutoff (required, used) =   200.000   201.251 Ry

stepf: Fermi-Dirac step function

siesta: Program's energy decomposition (eV):
siesta: Ebs     =      -227.634318
siesta: Eions   =      1264.537926
siesta: Ena     =       429.566997
siesta: Ekin    =       436.965972
siesta: Enl     =        -6.447858
siesta: DEna    =       -26.434847
siesta: DUscf   =         1.949329
siesta: DUext   =         0.000000
siesta: Exc     =      -192.469559
siesta: eta*DQ  =         0.000000
siesta: Emadel  =         0.000000
siesta: Emeta   =         0.000000
siesta: Emolmec =         0.000000
siesta: Ekinion =         0.000000
siesta: Eharris =      -621.408199
siesta: Etot    =      -621.407891
siesta: FreeEng =      -621.407891

siesta: E_KS(eV) =             -621.4082

siesta: E_KS - E_eggbox =      -621.4082

siesta: Atomic forces (eV/Ang):
   Tot    0.034726    0.002551   -0.001792
   Max    0.163560
   Res    0.083323    sqrt( Sum f_i^2 / 3N )
   Max    0.163560    constrained

Stress-tensor-Voigt (kbar):      -24.02      -24.32        0.01        0.33       -0.00       -0.02
(Free)E + p*V (eV/cell)     -619.8089
Target enthalpy (eV/cell)     -621.4094

mulliken: Mulliken Atomic and Orbital Populations:

Species: C
Atom  Qatom  Qorb
               2Pdxy   2Pdyz   2Pdz2   2Pdxz   2Pdx2-y2
   1  4.000   0.562   0.495   0.493   0.548   0.493   0.425   0.361   0.426
              0.049   0.045   0.006   0.045   0.049
   2  4.000   0.558   0.498   0.489   0.546   0.491   0.430   0.364   0.428
              0.050   0.045   0.006   0.045   0.050
   3  4.002   0.562   0.494   0.493   0.546   0.496   0.427   0.364   0.425
              0.049   0.045   0.006   0.045   0.050
   4  3.998   0.558   0.498   0.489   0.549   0.489   0.429   0.361   0.429
              0.050   0.045   0.006   0.045   0.050

mulliken: Qtot =       16.000

coxmol: Writing XMOL coordinates into file graphene.xyz
Computing bands...

siesta: Band energies (eV):
  ik is    eps
   1  1 -22.61 -17.67 -17.67 -15.67 -12.88 -11.54 -10.37  -5.09  -5.08   1.28
          4.07   4.97   6.35   6.61   6.88   8.38   8.41   9.60  12.16  14.40
         14.41  15.42  15.44  16.78  19.32  20.18  23.55  23.68  25.22  29.28
         39.51  39.52  41.81  44.34  45.07  45.07  54.29  54.32  58.79  60.01
         62.49  62.61  71.08  78.62  87.86  88.90 107.43 129.44 130.86 139.55
        139.64 171.80
   2  1 -22.63 -17.72 -17.62 -15.67 -12.85 -11.51 -10.40  -5.15  -5.02   1.33
          4.03   4.94   6.33   6.61   6.86   8.38   8.40   9.61  12.10  14.33
         14.48  15.40  15.47  16.86  19.32  20.22  23.64  23.73  25.22  29.30
         39.38  39.65  41.79  44.32  45.14  45.37  54.28  54.33  58.60  60.04
         62.28  62.81  71.04  78.62  87.78  88.73 107.42 129.44 130.72 138.73
        140.45 171.62
   3  1 -22.66 -17.77 -17.58 -15.67 -12.81 -11.47 -10.42  -5.21  -4.96   1.38
          3.99   4.90   6.34   6.62   6.84   8.36   8.41   9.61  12.04  14.26
         14.55  15.38  15.49  16.95  19.32  20.26  23.75  23.77  25.22  29.32
         39.25  39.78  41.77  44.27  45.23  45.66  54.25  54.33  58.42  60.07
         61.95  63.13  70.99  78.61  87.66  88.59 107.42 129.44 130.54 137.81
        141.35 171.38
   4  1 -22.68 -17.82 -17.53 -15.66 -12.78 -11.43 -10.45  -5.27  -4.89   1.42
          3.96   4.85   6.35   6.62   6.83   8.34   8.41   9.61  11.98  14.19
         14.63  15.36  15.52  17.04  19.32  20.30  23.81  23.86  25.23  29.35
         39.12  39.91  41.76  44.20  45.35  45.94  54.21  54.33  58.24  60.09
         61.62  63.45  70.94  78.59  87.48  88.48 107.41 129.45 130.31 136.86
        142.26 171.08
   5  1 -22.70 -17.88 -17.49 -15.64 -12.75 -11.38 -10.48  -5.34  -4.83   1.47
          3.92   4.79   6.37   6.63   6.81   8.32   8.41   9.61  11.92  14.12
         14.71  15.35  15.55  17.12  19.32  20.33  23.83  23.97  25.25  29.39
         38.99  40.04  41.77  44.13  45.47  46.22  54.15  54.32  58.05  60.10
         61.28  63.77  70.88  78.56  87.26  88.39 107.39 129.46 130.04 135.87
        143.18 170.72
   6  1 -22.72 -17.94 -17.44 -15.62 -12.73 -11.34 -10.50  -5.40  -4.76   1.51
          3.88   4.74   6.40   6.64   6.80   8.30   8.40   9.61  11.86  14.05
         14.79  15.34  15.58  17.22  19.32  20.36  23.85  24.10  25.26  29.44
         38.87  40.16  41.77  44.05  45.61  46.48  54.08  54.30  57.87  60.11
         60.94  64.10  70.82  78.52  87.01  88.32 107.37 129.47 129.74 134.84
        144.12 170.31
   7  1 -22.75 -18.00 -17.39 -15.60 -12.70 -11.29 -10.53  -5.47  -4.70   1.55
          3.83   4.67   6.44   6.65   6.79   8.28   8.38   9.61  11.79  13.98
         14.87  15.35  15.61  17.31  19.32  20.39  23.86  24.24  25.28  29.49
         38.75  40.28  41.79  43.97  45.74  46.73  53.99  54.28  57.69  60.11
         60.61  64.42  70.75  78.47  86.72  88.25 107.34 129.34 129.53 133.80
        145.07 169.83
   8  1 -22.77 -18.06 -17.35 -15.58 -12.69 -11.24 -10.55  -5.54  -4.63   1.59
          3.79   4.61   6.48   6.67   6.77   8.25   8.36   9.61  11.73  13.91
         14.95  15.35  15.63  17.40  19.31  20.42  23.86  24.38  25.31  29.56
         38.63  40.40  41.81  43.90  45.88  46.97  53.89  54.25  57.50  60.09
         60.30  64.74  70.67  78.41  86.41  88.18 107.31 128.96 129.55 132.72
        146.03 169.31
   9  1 -22.79 -18.13 -17.30 -15.55 -12.67 -11.19 -10.58  -5.61  -4.57   1.63
          3.75   4.54   6.53   6.68   6.76   8.23   8.33   9.60  11.66  13.84
         15.04  15.36  15.66  17.50  19.31  20.44  23.86  24.53  25.33  29.63
         38.51  40.52  41.84  43.82  46.02  47.20  53.77  54.22  57.32  59.91
         60.15  65.06  70.59  78.34  86.07  88.12 107.28 128.54 129.59 131.63
        146.99 168.72
  10  1 -22.81 -18.19 -17.25 -15.52 -12.65 -11.14 -10.60  -5.67  -4.50   1.67
          3.71   4.48   6.59   6.70   6.75   8.21   8.30   9.59  11.60  13.77
         15.12  15.38  15.69  17.59  19.31  20.47  23.85  24.69  25.36  29.73
         38.39  40.64  41.88  43.75  46.16  47.42  53.64  54.16  57.14  59.61
         60.12  65.37  70.51  78.26  85.69  88.04 107.23 128.08 129.64 130.52
        147.95 168.09
[...]
         41.04  41.15  45.89  45.95  48.49  51.46  55.92  60.39  63.91  66.90
         69.74  69.83  78.82  79.68  90.38  90.48  97.80 105.43 105.80 118.09
        127.88 169.96
 505  1 -24.52 -19.34 -18.35 -12.63 -11.54  -8.26  -8.23  -7.42  -3.44   1.66
          2.15   2.99   3.04   5.49   6.24   7.49   9.07   9.61   9.99  11.84
         14.56  18.71  19.17  21.37  26.81  26.83  28.79  29.87  30.51  36.22
         41.05  41.14  45.90  45.95  48.48  51.47  55.94  60.42  63.91  66.91
         69.74  69.83  78.82  79.64  90.60  90.68  97.80 105.56 105.67 118.04
        127.89 170.07
 506  1 -24.52 -19.34 -18.36 -12.63 -11.54  -8.26  -8.23  -7.42  -3.45   1.66
          2.15   2.99   3.04   5.49   6.24   7.49   9.08   9.61   9.99  11.84
         14.56  18.71  19.17  21.37  26.81  26.84  28.81  29.86  30.49  36.22
         41.05  41.13  45.90  45.95  48.48  51.47  55.95  60.42  63.91  66.91
         69.74  69.83  78.82  79.63  90.66  90.75  97.80 105.60 105.63 118.02
        127.89 170.11

siesta: Eigenvalues (eV):
  ik is    eps
   1  1 -23.27 -22.88 -12.99 -12.12 -11.14 -10.69 -10.35 -10.03   1.69   2.61
          2.65   2.68   3.44   3.93   6.46   6.79   7.56   8.67   9.79  10.30
         19.38  20.27  20.96  21.09  21.55  22.25  26.90  27.20  40.42  42.46
         43.06  43.50  44.22  46.28  46.34  47.78  47.99  49.75  50.85  52.19
         54.03  54.72  68.30  68.64  68.75  69.59  85.16  87.43 120.22 120.44
        147.00 150.14
   2  1 -23.60 -22.45 -13.87 -11.53 -11.27 -10.65 -10.20  -9.69   0.74   2.49
          2.57   3.23   3.47   4.60   6.19   6.51   7.16   9.28   9.81  10.71
         17.69  19.66  20.92  21.54  22.70  23.02  27.04  28.47  37.88  40.34
         41.82  42.06  43.63  45.71  47.32  47.83  49.69  49.76  50.64  53.08
         57.28  62.76  67.43  68.77  69.72  70.39  83.27  89.79 120.48 120.65
        143.43 152.79
   3  1 -23.88 -21.98 -14.75 -11.86 -10.91 -10.48  -9.67  -9.34  -0.20   2.21
          2.46   3.21   4.25   5.37   5.56   5.97   7.57   8.77  10.94  10.99
         16.14  19.20  20.39  21.82  23.83  24.10  27.37  31.59  35.62  36.30
         40.41  41.32  44.40  47.09  47.14  47.50  47.51  50.15  55.99  56.19
         59.76  66.38  69.92  70.49  70.88  71.32  82.29  92.07 120.26 121.41
        139.31 154.96
   4  1 -24.11 -21.46 -15.61 -12.14 -11.13  -9.75  -9.10  -9.00  -1.11   1.98
          2.36   3.20   4.71   4.93   5.79   6.21   8.03   8.32  11.09  12.04
         14.81  18.90  19.95  21.82  24.67  25.22  27.76  33.59  33.79  37.64
         39.09  40.90  44.96  45.44  47.10  47.33  48.46  51.00  58.98  62.06
         62.48  65.48  71.38  71.63  73.16  75.58  83.63  94.10 118.87 122.88
        134.53 156.88
   5  1 -24.29 -20.89 -16.44 -12.35 -11.31  -9.13  -8.70  -8.53  -1.96   1.82
          2.27   3.16   4.00   5.48   5.66   7.07   7.96   8.51  10.99  13.03
         13.68  18.75  19.61  21.68  25.47  26.01  28.16  31.81  32.38  37.92
         40.78  43.68  45.38  46.58  47.48  47.72  49.67  52.29  62.05  64.05
         64.78  67.78  72.07  73.95  75.32  78.00  88.75  95.75 116.26 124.63
        129.19 159.21
   6  1 -24.42 -20.30 -17.23 -12.51 -11.43  -8.66  -8.46  -8.00  -2.70   1.72
          2.21   3.10   3.47   5.56   5.90   7.69   7.91   8.99  10.71  12.77
         13.83  18.70  19.37  21.53  26.16  26.50  28.50  30.68  31.35  37.01
         40.87  42.30  45.68  46.28  48.10  50.64  53.91  56.84  64.29  65.59
         67.71  69.42  73.75  77.27  78.76  80.38  96.15  96.93 112.52 123.85
        126.28 162.90
   7  1 -24.50 -19.70 -17.95 -12.60 -11.51  -8.36  -8.30  -7.58  -3.24   1.67
          2.17   3.04   3.13   5.51   6.16   7.54   8.66   9.42  10.29  12.11
         14.37  18.70  19.22  21.41  26.65  26.75  28.73  30.06  30.71  36.42
         41.02  41.41  45.86  46.02  48.38  51.26  55.35  59.82  64.00  66.57
         69.70  69.80  78.85  78.96  84.71  87.22  97.60 102.71 108.17 119.66
        127.46 167.63
   8  1 -24.52 -19.34 -18.36 -12.63 -11.54  -8.26  -8.23  -7.42  -3.45   1.66
          2.15   2.99   3.04   5.49   6.24   7.49   9.08   9.61   9.99  11.84
         14.56  18.71  19.17  21.37  26.81  26.84  28.81  29.86  30.49  36.22
         41.05  41.13  45.90  45.95  48.48  51.47  55.95  60.42  63.91  66.91
         69.74  69.83  78.82  79.63  90.66  90.75  97.80 105.60 105.63 118.02
        127.89 170.11
   9  1 -23.19 -22.81 -12.99 -12.14 -11.05 -10.67 -10.60 -10.33   1.57   2.47
          2.97   3.08   3.68   4.09   6.50   6.81   7.02   7.93  10.35  11.02
         18.31  19.69  20.24  20.95  22.53  23.52  26.27  26.89  32.83  34.24
         42.32  42.56  43.36  43.52  46.03  47.74  48.00  52.39  54.38  55.99
         57.81  59.30  69.00  69.34  76.46  77.51  85.88  87.99 121.58 121.98
        155.11 157.56
  10  1 -23.19 -22.81 -12.99 -12.14 -11.05 -10.67 -10.60 -10.32   1.58   2.46
          2.98   3.07   3.68   4.09   6.50   6.81   7.01   7.94  10.35  11.02
         18.31  19.70  20.24  20.95  22.52  23.52  26.27  26.89  32.83  34.25
         42.38  42.56  43.31  43.52  46.04  47.74  48.00  52.37  54.31  56.06
         57.80  59.31  69.07  69.26  76.41  77.60  85.88  87.97 121.63 121.95
        155.14 157.52
[...]
         35.09  35.15  42.96  44.16  44.51  46.23  48.93  51.56  56.78  57.57
         68.03  69.30  69.87  73.66  96.35 100.17 103.41 109.15 130.76 131.97
        158.24 165.01
 112  1 -20.80 -19.73 -16.30 -15.33 -14.29 -13.39  -8.34  -7.22  -2.96  -1.69
          5.70   6.54   7.10   7.44   7.67   7.99   8.07   8.81  12.77  13.11
         14.98  15.47  17.01  17.31  17.88  19.26  19.48  20.24  26.84  28.18
         36.19  36.24  42.91  43.25  44.49  47.59  47.88  50.53  57.30  58.03
         69.76  70.12  71.92  74.32  96.37 100.32 104.21 107.99 131.93 132.57
        164.44 171.81
 113  1 -20.82 -19.75 -16.10 -15.13 -14.51 -13.59  -8.36  -7.23  -2.92  -1.62
          6.25   7.20   7.26   7.28   7.35   7.60   7.67   8.57  12.80  13.10
         15.15  15.83  16.53  17.28  17.68  19.33  19.48  20.14  26.70  28.04
         36.66  36.71  42.37  42.74  45.60  46.54  48.93  49.65  57.48  58.19
         69.92  71.03  72.75  74.54  96.35 100.37 104.57 107.49 131.87 133.32
        166.57 174.08
siesta: Fermi energy =      -5.082844 eV
siesta: PDOS info:
siesta: e1, e2, sigma, nhist:   -10.00 eV    3.00 eV    0.10 eV   2000

siesta: Program's energy decomposition (eV):
siesta: Ebs     =      -227.634318
siesta: Eions   =      1264.537926
siesta: Ena     =       429.566997
siesta: Ekin    =       436.965170
siesta: Enl     =        -6.447805
siesta: DEna    =       -26.434460
siesta: DUscf   =         1.949305
siesta: DUext   =         0.000000
siesta: Exc     =      -192.469477
siesta: eta*DQ  =         0.000000
siesta: Emadel  =         0.000000
siesta: Emeta   =         0.000000
siesta: Emolmec =         0.000000
siesta: Ekinion =         0.000000
siesta: Eharris =      -621.408199
siesta: Etot    =      -621.408195
siesta: FreeEng =      -621.409424

siesta: Final energy (eV):
siesta:  Band Struct. =    -227.634318
siesta:       Kinetic =     436.965170
siesta:       Hartree =    2151.954387
siesta:    Ext. field =       0.000000
siesta:   Exch.-corr. =    -192.469477
siesta:  Ion-electron =   -4722.547008
siesta:       Ion-ion =    1704.688732
siesta:       Ekinion =       0.000000
siesta:         Total =    -621.408195

siesta: Atomic forces (eV/Ang):
siesta:      1   -0.038018   -0.112294   -0.000444
siesta:      2   -0.152198   -0.040703    0.000126
siesta:      3    0.163560    0.047634   -0.001570
siesta:      4    0.061382    0.107915    0.000096
siesta: ----------------------------------------
siesta:    Tot    0.034726    0.002551   -0.001792

siesta: Stress tensor (static) (eV/Ang**3):
siesta:    -0.014993    0.000205   -0.000011
siesta:     0.000205   -0.015179   -0.000001
siesta:    -0.000011   -0.000001    0.000009

siesta: Cell volume =        159.196765 Ang**3

siesta: Pressure (static):
siesta:                Solid            Molecule  Units
siesta:           0.00010950          0.00009856  Ry/Bohr**3
siesta:           0.01005405          0.00904926  eV/Ang**3
siesta:          16.10854517         14.49866655  kBar
(Free)E+ p_basis*V_orbitals  =        -618.716899
(Free)Eharris+ p_basis*V_orbitals  =        -618.717208

siesta: Electric dipole (a.u.)  =    0.000000    0.000000   -0.000027
siesta: Electric dipole (Debye) =    0.000000    0.000000   -0.000068

elaps:  Routine       Calls   Time/call    Tot.time        %
elaps:  siesta            1    1671.700    1671.700   100.00
elaps:  Setup             1      16.556      16.556     0.99
elaps:  bands             3      10.383      31.149     1.86
elaps:  writewave         1       0.000       0.000     0.00
elaps:  KSV_init          1       0.000       0.000     0.00
elaps:  IterMD            1      33.716      33.716     2.02
elaps:  hsparse           1       0.004       0.004     0.00
elaps:  overlap           1       0.287       0.287     0.02
elaps:  IterSCF           1      23.397      23.397     1.40
elaps:  kinefsm           2       0.130       0.259     0.02
elaps:  nlefsm            2       1.559       3.119     0.19
elaps:  DHSCF             3       4.010      12.031     0.72
elaps:  DHSCF1            1       0.166       0.166     0.01
elaps:  DHSCF2            1       1.438       1.438     0.09
elaps:  REORD            30       0.000       0.003     0.00
elaps:  POISON            4       0.138       0.552     0.03
elaps:  DHSCF3            3       3.092       9.275     0.55
elaps:  rhoofd            3       0.726       2.178     0.13
elaps:  cellXC            3       0.044       0.132     0.01
elaps:  vmat              2       1.347       2.694     0.16
elaps:  MolMec            2       0.000       0.000     0.00
elaps:  diagon            1      15.914      15.914     0.95
elaps:  c-eigval        619       0.070      43.162     2.58
elaps:  c-buildHS       619       0.002       1.115     0.07
elaps:  cdiag         12058       0.116    1393.773    83.37
elaps:  cdiag1        12058       0.022     266.462    15.94
elaps:  cdiag2        12058       0.014     169.350    10.13
elaps:  cdiag3        12058       0.063     755.965    45.22
elaps:  cdiag4        12058       0.003      39.541     2.37
elaps:  c-eigvec        113       0.032       3.668     0.22
elaps:  c-buildD        113       0.002       0.174     0.01
elaps:  DHSCF4            1       1.150       1.150     0.07
elaps:  dfscf             1       1.072       1.072     0.06
elaps:  overfsm           1       0.017       0.017     0.00
elaps:  pdos              1    1588.007    1588.007    94.99
elaps:  optical           1       0.000       0.000     0.00

>> End of run:  24-SEP-2015  16:18:36